NAME: concorde7
TYPE: TSP
RUN_TIME: 0.004
DISTANCE: 64
COMMENT: Solution by max williams
DIMENSION: 7
EDGE_WEIGHT_TYPE: EUC_2D
NODE_COORD_SECTION
1 29.656862 81.223630
2 29.003267 69.831220
7 27.042484 59.071730
3 21.486929 67.088610
6 25.571896 72.573840
5 24.019608 78.691986
4 20.915033 86.497890
